TITL  1Defaultparameters
CELL  0.71073 18.2048 11.4818 18.9389 90.000 100.190 90.000
ZERR  2 0.0006 0.0004 0.0007 0.000 0.001 0.000
LATT -1
SYMM    -X, .50+Y,    -Z
SFAC C H O LI EU
UNIT 160 152 22 6 2
L.S. 8
WGHT    0.109300   20.969000
BASF   0.25584
FVAR       2.09378   0.00000
EU1   5    0.815442    0.194311    0.684236    11.00000    0.02058    0.02154 =
         0.02062    0.00063    0.00191    0.00089
O1    3    0.893443    0.086963    0.776878    11.00000    0.02120    0.02512 =
         0.02593   -0.00117    0.00292    0.00000
O2    3    0.935827    0.187239    0.650785    11.00000    0.02032    0.02971 =
         0.02368    0.00123   -0.00049   -0.00461
O3    3    0.731440    0.187679    0.761153    11.00000    0.02794    0.02806 =
         0.02303    0.01003    0.00001   -0.00434
O4    3    0.864270    0.327198    0.776082    11.00000    0.02479    0.02632 =
         0.03344   -0.00081    0.00418   -0.00090
O5    3    0.819370    0.030766    0.615997    11.00000    0.02402    0.02413 =
         0.02723   -0.00782    0.00073   -0.00259
O6    3    0.691506    0.184832    0.618890    11.00000    0.02521    0.02478 =
         0.02316   -0.00213    0.00105    0.00385
O7    3    0.991121    0.217053    0.919770    11.00000    0.04317    0.04851 =
         0.03066   -0.00411   -0.00851   -0.00574
O8    3    0.581580    0.334315    0.709529    11.00000    0.04412    0.03977 =
         0.04906   -0.00708    0.00287    0.01380
O9    3    0.571075    0.065937    0.714122    11.00000    0.05109    0.04361 =
         0.04073   -0.00652    0.01493   -0.00702
O10   3    0.948851   -0.058200    0.540239    11.00000    0.03169    0.03996 =
         0.03219   -0.00751    0.00508    0.00493
O11   3    0.815806    0.350601    0.593599    11.00000    0.03778    0.03619 =
         0.02273    0.00935    0.00925    0.00606
C1    1    0.938701   -0.000256    0.768554    11.00000    0.02574    0.02008 =
         0.02524    0.00547   -0.00611   -0.00300
C2    1    0.914967   -0.116439    0.782299    11.00000    0.04348    0.02290 =
         0.02783    0.00539   -0.00572   -0.00195
C3    1    0.955888   -0.211533    0.769128    11.00000    0.03639    0.02098 =
         0.02635    0.00326   -0.00977   -0.00617
C4    1    1.022009   -0.202099    0.738192    11.00000    0.03759    0.02478 =
         0.02879    0.00261   -0.01072   -0.00836
C5    1    1.060298   -0.301904    0.718678    11.00000    0.03743    0.03150 =
         0.03746    0.00313   -0.01039    0.01120
C6    1    1.125152   -0.287235    0.689740    11.00000    0.04745    0.05592 =
         0.03775   -0.02058   -0.01602    0.02118
C7    1    1.154123   -0.170750    0.679877    11.00000    0.03796    0.02222 =
         0.04260   -0.00131   -0.00172    0.00655
C8    1    1.116369   -0.072648    0.698286    11.00000    0.02710    0.03043 =
         0.03542    0.00060   -0.00934    0.00435
C9    1    1.048238   -0.084092    0.728489    11.00000    0.02871    0.02085 =
         0.02213    0.00077   -0.00517    0.00276
C10   1    1.007128    0.015788    0.745915    11.00000    0.02706    0.02097 =
         0.02165    0.00060   -0.00651    0.00479
C11   1    1.037112    0.135132    0.741666    11.00000    0.01869    0.01654 =
         0.03299    0.00214    0.00258    0.00225
C12   1    1.104187    0.171225    0.791004    11.00000    0.02382    0.02604 =
         0.02976   -0.00020    0.00137    0.00208
C13   1    1.142424    0.095406    0.843396    11.00000    0.03860    0.02765 =
         0.03629    0.00636   -0.00652    0.00192
C14   1    1.207799    0.132432    0.889601    11.00000    0.05787    0.04137 =
         0.05146   -0.00399   -0.01428    0.01550
C15   1    1.235546    0.248770    0.883761    11.00000    0.04924    0.04790 =
         0.03473   -0.00504   -0.00104   -0.01074
C16   1    1.197293    0.324847    0.834459    11.00000    0.04033    0.03751 =
         0.03133   -0.01126    0.00336   -0.00005
C17   1    1.130459    0.286943    0.787619    11.00000    0.02333    0.02501 =
         0.04427   -0.01581    0.00827    0.00207
C18   1    1.089619    0.368356    0.739011    11.00000    0.03112    0.02506 =
         0.03226   -0.00676    0.00552   -0.00479
C19   1    1.022985    0.333811    0.696266    11.00000    0.03278    0.02663 =
         0.02892    0.00317    0.01169    0.00077
C20   1    0.997725    0.216240    0.695510    11.00000    0.01823    0.02791 =
         0.02546   -0.00081    0.00392    0.00371
C21   1    0.753100    0.166605    0.832002    11.00000    0.02086    0.02025 =
         0.03004   -0.00356    0.00943   -0.00112
C22   1    0.747572    0.047433    0.854488    11.00000    0.03868    0.02918 =
         0.02438    0.00007    0.01228   -0.00297
C23   1    0.770441    0.016688    0.924980    11.00000    0.05288    0.03280 =
         0.03360    0.00633    0.01318    0.00738
C24   1    0.801329    0.103730    0.977820    11.00000    0.05228    0.01759 =
         0.02857    0.00216    0.00776    0.00309
C25   1    0.826150    0.070760    1.050892    11.00000    0.05760    0.05378 =
         0.02555    0.00146    0.00933    0.01220
C26   1    0.856535    0.151632    1.097931    11.00000    0.06709    0.06214 =
         0.02101   -0.00004    0.00188    0.02067
C27   1    0.865907    0.270028    1.076147    11.00000    0.07458    0.05452 =
         0.02331    0.00172    0.00440    0.01608
C28   1    0.839347    0.305305    1.007583    11.00000    0.04028    0.03158 =
         0.02839   -0.00327   -0.00479   -0.00180
C29   1    0.806160    0.222496    0.955523    11.00000    0.04207    0.02530 =
         0.01539    0.00346    0.00201    0.00590
C30   1    0.780702    0.254728    0.881003    11.00000    0.02732    0.02935 =
         0.02396   -0.00482    0.00243   -0.00389
C31   1    0.781927    0.378691    0.856586    11.00000    0.02994    0.02684 =
         0.02421   -0.00583   -0.00408   -0.00285
C32   1    0.739071    0.466326    0.882320    11.00000    0.03247    0.02835 =
         0.02518   -0.00817   -0.00366    0.00091
C33   1    0.688035    0.438192    0.930795    11.00000    0.03810    0.05336 =
         0.02771   -0.01512   -0.00146    0.00426
C34   1    0.645809    0.526873    0.953372    11.00000    0.03623    0.06437 =
         0.06237   -0.01065   -0.00256    0.01977
C35   1    0.651860    0.645611    0.933577    11.00000    0.04852    0.04485 =
         0.05706   -0.01068   -0.00855    0.02015
C36   1    0.698962    0.670350    0.885138    11.00000    0.03429    0.02832 =
         0.05886   -0.00291   -0.00827    0.01342
C37   1    0.742534    0.585133    0.860571    11.00000    0.04185    0.02367 =
         0.02639   -0.00736   -0.00840    0.00867
C38   1    0.792070    0.614682    0.809946    11.00000    0.04520    0.02973 =
         0.03000   -0.00213   -0.00728    0.00154
C39   1    0.830789    0.529287    0.786112    11.00000    0.04714    0.02060 =
         0.02809   -0.00180   -0.00087   -0.00822
C40   1    0.825344    0.407326    0.806446    11.00000    0.02736    0.02820 =
         0.02144    0.00267   -0.00131   -0.00446
C41   1    0.764650   -0.051233    0.598545    11.00000    0.02377    0.03777 =
         0.02619   -0.00702    0.00872    0.00372
C42   1    0.774525   -0.160186    0.632116    11.00000    0.02865    0.03008 =
         0.02642   -0.00309   -0.00305    0.00481
C43   1    0.723626   -0.245958    0.617281    11.00000    0.03337    0.03058 =
         0.03172   -0.00155   -0.00614    0.00277
C44   1    0.656003   -0.229387    0.563708    11.00000    0.04778    0.03141 =
         0.02586   -0.00237    0.00364    0.00080
C45   1    0.600628   -0.313871    0.549601    11.00000    0.04211    0.04622 =
         0.04530   -0.00742    0.00315    0.01255
C46   1    0.537274   -0.294055    0.499199    11.00000    0.03567    0.04066 =
         0.04690    0.00047    0.00300   -0.01911
C47   1    0.527806   -0.189529    0.463111    11.00000    0.03425    0.05413 =
         0.03725   -0.00138   -0.00447   -0.01044
C48   1    0.580053   -0.101542    0.477472    11.00000    0.02451    0.04864 =
         0.03463   -0.00257    0.00091   -0.00340
C49   1    0.648617   -0.118127    0.527619    11.00000    0.02419    0.03470 =
         0.02098    0.00296    0.00255    0.00038
C50   1    0.702902   -0.030379    0.544016    11.00000    0.02177    0.02800 =
         0.02193    0.00297    0.00789   -0.00169
C51   1    0.689956    0.085056    0.507965    11.00000    0.01055    0.03439 =
         0.01627    0.00416   -0.00552   -0.00402
C52   1    0.687120    0.092951    0.431992    11.00000    0.01982    0.03586 =
         0.02673    0.00384    0.00017   -0.00371
C53   1    0.704094   -0.000351    0.389558    11.00000    0.02273    0.04971 =
         0.02284   -0.00444   -0.00018   -0.01137
C54   1    0.700112    0.009486    0.314162    11.00000    0.03195    0.08028 =
         0.02590   -0.00511    0.00481   -0.01848
C55   1    0.678409    0.111812    0.279246    11.00000    0.05343    0.05368 =
         0.02356   -0.00876    0.00468   -0.01606
C56   1    0.662323    0.194243    0.317788    11.00000    0.03354    0.10422 =
         0.03335    0.02698   -0.01025   -0.04038
C57   1    0.665804    0.198480    0.395157    11.00000    0.02606    0.05287 =
         0.03348    0.01498    0.00226   -0.02057
C58   1    0.648139    0.297259    0.435876    11.00000    0.03035    0.03671 =
         0.03262    0.00445   -0.00635   -0.00437
C59   1    0.654691    0.288286    0.509810    11.00000    0.01256    0.04348 =
         0.03761    0.01566   -0.00207    0.00064
C60   1    0.679730    0.182219    0.546844    11.00000    0.01880    0.02478 =
         0.02462    0.00707    0.00466   -0.00420
C61   1    1.037493    0.315386    0.950174    11.00000    0.08384    0.09928 =
         0.05517   -0.02819    0.00474   -0.06272
C62   1    1.076368    0.269604    1.021518    11.00000    0.15351    0.12381 =
         0.06642    0.01269   -0.06332   -0.05675
C63   1    1.064378    0.147175    1.028293    11.00000    0.09852    0.10868 =
         0.04966    0.00932   -0.02687   -0.00660
C64   1    1.006897    0.108112    0.962555    11.00000    0.04784    0.06831 =
         0.03042    0.01417   -0.00454   -0.00278
C65   1    0.619189    0.444873    0.702931    11.00000    0.07023    0.02714 =
         0.06535    0.00170    0.01196    0.00456
C66   1    0.566430    0.532646    0.715958    11.00000    0.11990    0.03620 =
         0.09204   -0.01052    0.04064    0.00067
C67   1    0.522752    0.475963    0.769094    11.00000    0.13001    0.06999 =
         0.11797   -0.01544    0.03602    0.06547
C68   1    0.531224    0.338651    0.760197    11.00000    0.12603    0.09737 =
         0.15780   -0.07909    0.10443   -0.02360
C69   1    0.553178    0.025880    0.785595    11.00000    0.08132    0.10548 =
         0.04280    0.02983    0.01381   -0.01667
C70   1    0.559959   -0.122105    0.774549    11.00000    0.22806    0.25311 =
         0.21085    0.15998    0.01608   -0.10424
C71   1    0.541967   -0.130012    0.705797    11.00000    0.16613    0.04238 =
         0.34330    0.04104    0.03156   -0.02125
C72   1    0.553609   -0.027369    0.659686    11.00000    0.13991    0.06656 =
         0.12098   -0.05551    0.09045   -0.04603
C73   1    0.898092   -0.046169    0.471535    11.00000    0.03258    0.05300 =
         0.03159    0.00238    0.00732    0.00560
C74   1    0.871756   -0.166639    0.449958    11.00000    0.02751    0.06178 =
         0.03416   -0.00466   -0.00008   -0.00392
C75   1    0.941069   -0.240596    0.479062    11.00000    0.03280    0.05110 =
         0.02517   -0.00187    0.00686    0.00348
C76   1    0.967826   -0.181876    0.550382    11.00000    0.03957    0.03117 =
         0.03786    0.00532   -0.00325    0.00039
C77   1    0.791479    0.469831    0.597302    11.00000    0.05671    0.03298 =
         0.03180    0.01093    0.02038    0.01585
C78   1    0.843469    0.538042    0.561248    11.00000    0.14348    0.03376 =
         0.16946    0.02235    0.11783    0.00670
C79   1    0.868893    0.458602    0.505340    11.00000    0.09982    0.04088 =
         0.08843    0.02540    0.06209    0.00456
C80   1    0.846939    0.335830    0.525106    11.00000    0.04468    0.03852 =
         0.02532    0.00765    0.01021    0.00566
LI1   4    0.920531    0.218591    0.835210    11.00000    0.03857    0.03714 =
         0.02878    0.00628   -0.00770   -0.00336
LI2   4    0.639527    0.190181    0.696253    11.00000    0.03312    0.03364 =
         0.02708    0.00736    0.00455   -0.00636
LI3   4    0.923382    0.030469    0.617774    11.00000    0.02280    0.04104 =
         0.04358   -0.00479   -0.00719   -0.00499
HKLF 5 
END  
     

