TITL ostd089b                                                                  
CELL  1.54184   15.9530   12.4070   11.3710    90.000   123.399    90.000
ZERR 1           0.0010    0.0010    0.0010     0.000     0.007     0.000
LATT   7
SYMM             - X ,              Y ,    0.50000 - Z           
SFAC  C   2.31000  20.84392   1.02000  10.20751   1.58860   0.56870   0.86500 =
         51.65125   0.21560   0.01810   0.00910    89.900   0.68000  12.01000
SFAC  H   0.49300  10.51091   0.32291  26.12573   0.14019   3.14236   0.04081 =
         57.79977   0.00304   0.00000   0.00000     0.655   0.35000   1.00800
SFAC Ca   8.62661  10.44211   7.38731   0.65990   1.58990  85.74849   1.02110 =
        178.43719   1.37510   0.36410   1.28550 11300.000   0.99000  40.08000
SFAC  N  12.21261   0.00570   3.13220   9.89331   2.01250  28.99754   1.16630 =
          0.58260 -11.52901   0.03110   0.01800   173.000   0.68000  14.01000
SFAC  O   3.04850  13.27711   2.28680   5.70111   1.54630   0.32390   0.86700 =
         32.90894   0.25080   0.04920   0.03220   304.000   0.68000  16.00000
SFAC  P   6.43451   1.90670   4.17910  27.15704   1.78000   0.52600   1.49080 =
         68.16457   1.11490   0.29550   0.43350  3880.000   1.05000  30.97000
UNIT    32   72   4  24   8  56  16
L.S. 5
ACTA
BOND $H
FVAR    1.00000
Ca    3  0.00000  1.02174 -0.25000 =
       10.50000   0.0330   0.0272   0.0198   0.0000   0.0112   0.0000
P1    6  0.11808  0.86641  0.07769 =
       11.00000   0.0321   0.0245   0.0245   0.0022   0.0132   0.0015
P2    6 -0.08952  0.77843 -0.01453 =
       11.00000   0.0318   0.0247   0.0231  -0.0009   0.0115  -0.0013
O1    5  0.08600  0.69589  0.19347 =
       11.00000   0.0479   0.0303   0.0293   0.0054   0.0195   0.0038
O11   5  0.09370  0.90880 -0.06180  11.00000   0.0507
O12   5  0.10120  0.94500  0.16427 =
       11.00000   0.0443   0.0258   0.0353  -0.0014   0.0237  -0.0012
O13   5  0.23029  0.83137  0.15989 =
       11.00000   0.0299   0.0391   0.0279   0.0041   0.0118   0.0048
O21   5 -0.09179  0.83449  0.10083 =
       11.00000   0.0371   0.0352   0.0288  -0.0072   0.0165  -0.0033
O22   5 -0.12810  0.85298 -0.14611 =
       11.00000   0.0454   0.0287   0.0265   0.0042   0.0106  -0.0017
O23   5 -0.15210  0.67817 -0.07045 =
       11.00000   0.0371   0.0283   0.0281  -0.0041   0.0128  -0.0080
N1    4  0.21479  0.45523 -0.05606 =
       11.00000   0.0446   0.0313   0.0418   0.0035   0.0243   0.0052
AFIX    3
H1N   2  0.22612  0.41261  0.02084 11.00000 -1.20000
H2N   2  0.20157  0.40932 -0.13144 11.00000 -1.20000
H3N   2  0.27268  0.49747 -0.02727 11.00000 -1.20000
AFIX    0
C1    1  0.04346  0.74500  0.05600 =
       11.00000   0.0396   0.0287   0.0264   0.0013   0.0160   0.0015
C2    1  0.04547  0.66075 -0.04074 =
       11.00000   0.0428   0.0335   0.0326  -0.0037   0.0179   0.0025
AFIX   23
H1C2  2  0.02564  0.69612 -0.12654 11.00000 -1.20000
H2C2  2 -0.00264  0.60707 -0.05851 11.00000 -1.20000
AFIX    0
C3    1  0.14477  0.60322  0.01081 =
       11.00000   0.0428   0.0386   0.0386  -0.0052   0.0192   0.0047
AFIX   23
H1C3  2  0.16571  0.56417  0.09443 11.00000 -1.20000
H2C3  2  0.19494  0.65443  0.02901 11.00000 -1.20000
AFIX    0
C4    1  0.12747  0.52701 -0.10358 =
       11.00000   0.0365   0.0323   0.0388   0.0020   0.0170   0.0039
AFIX   23
H1C4  2  0.11576  0.56773 -0.18202 11.00000 -1.20000
H2C4  2  0.07025  0.48389 -0.13113 11.00000 -1.20000
AFIX    0
HKLF 4 1  1.0000  0.0000  0.0000  0.0000  1.0000  0.0000  0.0000  0.0000  1.0000
END
