
###########################################################################
#
#                 Cambridge Crystallographic Data Centre
#                                CCDC 
# 
###########################################################################
#
#  This CIF contains data generated directly from an entry in the Cambridge 
#  Structural Database and will include bibliographic, chemical, crystal, 
#  experimental, refinement, and atomic coordinate data, as available.
#     
#  Copyright  2004  The Cambridge Crystallographic Data Centre
# 
#  This CIF is provided on the understanding that it is used for bona fide 
#  research purposes only.  It may contain copyright material of the CCDC
#  or of third parties, and may not be copied or further disseminated in 
#  any form, whether machine-readable or not, except for the purpose of 
#  generating routine backup copies on your local computer system.
# 
#  For further information about the CCDC, data deposition and data 
#  retrieval see <www.ccdc.cam.ac.uk>. Bona fide researchers may freely 
#  download  Mercury and enCIFer from this site to visualise CIF-encoded 
#  structures and to carry out CIF format checking respectively.
#
###########################################################################

data_CSD_CIF_FITLAV02
_audit_creation_date 1996-06-26
_audit_creation_method CSD-ConQuest-V1
_database_code_CSD FITLAV02
_chemical_formula_sum 'C54 H45 Ag1 I1 P3'
_chemical_formula_moiety
;
C54 H45 Ag1 I1 P3
;
_journal_coeditor_code "IUCr KA1149"
_journal_coden_Cambridge 591
_journal_volume 52
_journal_year 1996
_journal_page_first 884
_journal_name_full 'Acta Crystallogr.,Sect.C:Cryst.Struct.Commun. '
loop_
_publ_author_name
"D.E.Hibbs"
"M.B.Hursthouse"
"K.M.A.Malik"
"M.A.Beckett"
"P.W.Jones"
_chemical_name_systematic
;
Iodo-tris(triphenylphosphine)-silver(i)
;
_chemical_melting_point 446
_cell_volume   4510.365
_exptl_crystal_colour 'colorless'
_exptl_crystal_density_diffrn 1.504
_exptl_special_details
;
Melting point range 446-447K
monoclinic polymorph
Isostructural with the room 
temperature iodide structure

;
_diffrn_ambient_temperature 140
#These two values have been output from a single CSD field.
_refine_ls_R_factor_gt 0.0489
_refine_ls_wR_factor_gt 0.0489
_symmetry_cell_setting monoclinic
_symmetry_space_group_name_H-M 'P 21/n'
_symmetry_Int_Tables_number 14
loop_
_symmetry_equiv_pos_site_id
_symmetry_equiv_pos_as_xyz
1 x,y,z
2 1/2-x,1/2+y,1/2-z
3 -x,-y,-z
4 -1/2+x,-1/2-y,-1/2+z
_cell_length_a 18.847(3)
_cell_length_b 13.715(2)
_cell_length_c 17.543(3)
_cell_angle_alpha 90
_cell_angle_beta 95.93(4)
_cell_angle_gamma 90
_cell_formula_units_Z 4
loop_
_atom_type_symbol
_atom_type_radius_bond
C 0.68
H 0.23
Ag 1.59
I 1.40
P 1.05
loop_
_atom_site_label
_atom_site_type_symbol
_atom_site_fract_x
_atom_site_fract_y
_atom_site_fract_z
I1 I -0.10392(2) 0.27263(2) 0.10978(2)
Ag1 Ag -0.00064(2) 0.19352(2) 0.22461(2)
P1 P 0.00177(6) 0.31952(8) 0.34172(6)
P2 P -0.04150(6) 0.02193(8) 0.25713(6)
P3 P 0.11810(6) 0.20491(8) 0.16940(6)
C1 C -0.0865(2) 0.3395(3) 0.3727(2)
C2 C -0.1378(3) 0.2671(3) 0.3608(3)
H1 H -0.1271(3) 0.2102(3) 0.3355(3)
C3 C -0.2040(3) 0.2775(4) 0.3855(3)
H2 H -0.2369(3) 0.2269(4) 0.3788(3)
C4 C -0.2220(3) 0.3628(4) 0.4203(3)
H3 H -0.2671(3) 0.3702(4) 0.4367(3)
C5 C -0.1726(3) 0.4370(4) 0.4307(3)
H4 H -0.1848(3) 0.4951(4) 0.4535(3)
C6 C -0.1050(3) 0.4262(3) 0.4075(3)
H5 H -0.0720(3) 0.4765(3) 0.4151(3)
C7 C 0.0239(2) 0.4432(3) 0.3128(2)
C8 C -0.0174(3) 0.4806(3) 0.2492(3)
H6 H -0.0542(3) 0.4433(3) 0.2248(3)
C9 C -0.0041(3) 0.5728(4) 0.2222(3)
H7 H -0.0316(3) 0.5965(4) 0.1791(3)
C10 C 0.0484(3) 0.6289(4) 0.2575(3)
H8 H 0.0567(3) 0.6911(4) 0.2392(3)
C11 C 0.0897(3) 0.5933(4) 0.3210(4)
H9 H 0.1264(3) 0.6313(4) 0.3449(4)
C12 C 0.0769(3) 0.5009(3) 0.3495(3)
H10 H 0.1039(3) 0.4781(3) 0.3932(3)
C13 C 0.0594(3) 0.3047(3) 0.4327(2)
C14 C 0.1292(3) 0.2807(3) 0.4301(3)
H11 H 0.1461(3) 0.2707(3) 0.3827(3)
C15 C 0.1763(3) 0.2706(3) 0.4965(3)
H12 H 0.2240(3) 0.2554(3) 0.4934(3)
C16 C 0.1507(3) 0.2836(3) 0.5674(3)
H13 H 0.1813(3) 0.2767(3) 0.6122(3)
C17 C 0.0805(3) 0.3065(4) 0.5711(3)
H14 H 0.0635(3) 0.3155(4) 0.6185(3)
C18 C 0.0342(3) 0.3165(4) 0.5042(3)
H15 H -0.0136(3) 0.3311(4) 0.5072(3)
C19 C -0.1331(2) 0.0145(3) 0.2837(2)
C20 C -0.1857(3) 0.0659(3) 0.2384(3)
H16 H -0.1735(3) 0.1055(3) 0.1987(3)
C21 C -0.2566(3) 0.0577(4) 0.2530(3)
H17 H -0.2918(3) 0.0917(4) 0.2229(3)
C22 C -0.2750(3) -0.0007(4) 0.3120(3)
H18 H -0.3224(3) -0.0062(4) 0.3216(3)
C23 C -0.2228(3) -0.0505(4) 0.3563(3)
H19 H -0.2351(3) -0.0892(4) 0.3964(3)
C24 C -0.1521(3) -0.0439(3) 0.3422(2)
H20 H -0.1173(3) -0.0788(3) 0.3722(2)
C25 C -0.0396(2) -0.0816(3) 0.1912(2)
C26 C 0.0208(2) -0.0948(3) 0.1524(2)
H21 H 0.0589(2) -0.0517(3) 0.1610(2)
C27 C 0.0246(3) -0.1707(3) 0.1017(2)
H22 H 0.0651(3) -0.1786(3) 0.0761(2)
C28 C -0.0325(3) -0.2360(3) 0.0888(2)
H23 H -0.0302(3) -0.2875(3) 0.0546(2)
C29 C -0.0918(3) -0.2234(3) 0.1270(3)
H24 H -0.1298(3) -0.2666(3) 0.1182(3)
C30 C -0.0961(2) -0.1481(3) 0.1779(2)
H25 H -0.1366(2) -0.1412(3) 0.2037(2)
C31 C 0.0142(2) -0.0216(3) 0.3419(2)
C32 C 0.0385(3) 0.0473(4) 0.3963(3)
H26 H 0.0242(3) 0.1119(4) 0.3898(3)
C33 C 0.0837(4) 0.0207(4) 0.4600(3)
H27 H 0.0995(4) 0.0678(4) 0.4960(3)
C34 C 0.1051(3) -0.0727(4) 0.4707(3)
H28 H 0.1355(3) -0.0901(4) 0.5137(3)
C35 C 0.0814(3) -0.1416(4) 0.4173(3)
H29 H 0.0955(3) -0.2062(4) 0.4243(3)
C36 C 0.0369(3) -0.1159(4) 0.3536(3)
H30 H 0.0219(3) -0.1634(4) 0.3176(3)
C37 C 0.1317(2) 0.3107(3) 0.1085(2)
C38 C 0.0836(3) 0.3873(3) 0.1082(2)
H31 H 0.0474(3) 0.3856(3) 0.1404(2)
C39 C 0.0893(3) 0.4664(3) 0.0599(3)
H32 H 0.0573(3) 0.5180(3) 0.0604(3)
C40 C 0.1422(3) 0.4689(3) 0.0112(3)
H33 H 0.1453(3) 0.5214(3) -0.0219(3)
C41 C 0.1905(3) 0.3930(4) 0.0116(3)
H34 H 0.2269(3) 0.3951(4) -0.0204(3)
C42 C 0.1850(3) 0.3138(3) 0.0597(3)
H35 H 0.2172(3) 0.2624(3) 0.0591(3)
C43 C 0.1423(2) 0.1039(3) 0.1092(2)
C44 C 0.0930(2) 0.0774(3) 0.0480(2)
H36 H 0.0497(2) 0.1102(3) 0.0398(2)
C45 C 0.1082(3) 0.0026(3) -0.0008(2)
H37 H 0.0754(3) -0.0138(3) -0.0421(2)
C46 C 0.1713(3) -0.0473(3) 0.0115(2)
H38 H 0.1811(3) -0.0977(3) -0.0213(2)
C47 C 0.2198(3) -0.0229(3) 0.0720(3)
H39 H 0.2622(3) -0.0577(3) 0.0806(3)
C48 C 0.2063(2) 0.0530(3) 0.1207(2)
H40 H 0.2400(2) 0.0699(3) 0.1610(2)
C49 C 0.1925(2) 0.2052(3) 0.2438(2)
C50 C 0.1972(2) 0.1270(3) 0.2953(2)
H41 H 0.1625(2) 0.0785(3) 0.2905(2)
C51 C 0.2528(3) 0.1207(4) 0.3531(3)
H42 H 0.2558(3) 0.0676(4) 0.3862(3)
C52 C 0.3034(3) 0.1928(4) 0.3616(3)
H43 H 0.3409(3) 0.1881(4) 0.4003(3)
C53 C 0.2992(3) 0.2719(4) 0.3132(3)
H44 H 0.3331(3) 0.3213(4) 0.3200(3)
C54 C 0.2437(3) 0.2781(3) 0.2534(3)
H45 H 0.2413(3) 0.3311(3) 0.2201(3)
#END
