
###########################################################################
#
#                 Cambridge Crystallographic Data Centre
#                                CCDC 
# 
###########################################################################
#
#  This CIF contains data generated directly from an entry in the Cambridge 
#  Structural Database and will include bibliographic, chemical, crystal, 
#  experimental, refinement, and atomic coordinate data, as available.
#     
#  Copyright  2004  The Cambridge Crystallographic Data Centre
# 
#  This CIF is provided on the understanding that it is used for bona fide 
#  research purposes only.  It may contain copyright material of the CCDC
#  or of third parties, and may not be copied or further disseminated in 
#  any form, whether machine-readable or not, except for the purpose of 
#  generating routine backup copies on your local computer system.
# 
#  For further information about the CCDC, data deposition and data 
#  retrieval see <www.ccdc.cam.ac.uk>. Bona fide researchers may freely 
#  download  Mercury and enCIFer from this site to visualise CIF-encoded 
#  structures and to carry out CIF format checking respectively.
#
###########################################################################

data_CSD_CIF_JAVWIM
_audit_creation_date 1990-06-07
_audit_creation_method CSD-ConQuest-V1
_database_code_CSD JAVWIM
_chemical_formula_sum 'C6 H12 Ag1 Cl1 S3'
_chemical_formula_moiety
;
C6 H12 Ag1 Cl1 S3
;
_journal_coden_Cambridge 9
_journal_volume 28
_journal_year 1989
_journal_page_first 4040
_journal_name_full 'Inorg.Chem. '
loop_
_publ_author_name
"P.J.Blower"
"J.A.Clarkson"
"S.C.Rawle"
"J.A.R.Hartman"
"R.E.Wolf Junior"
"R.Yagbasan"
"S.G.Bott"
"S.R.Cooper"
_chemical_name_systematic
;
Chloro-1,4,7-trithiacyclononane-silver(i)
;
_chemical_name_common
;
Chloro-trithia-9-crown-3-silver(i)
;
_cell_volume   2105.158
_exptl_crystal_colour 'white'
_exptl_crystal_density_diffrn 2.04
_exptl_special_details
;
z(H8) is 0.2326 not 0.0326

;
_diffrn_ambient_temperature ?
_diffrn_special_details
;
The study was carried out at room temperature,in the range 283-303K

;
#These two values have been output from a single CSD field.
_refine_ls_R_factor_gt 0.0599
_refine_ls_wR_factor_gt 0.0599
_symmetry_cell_setting monoclinic
_symmetry_space_group_name_H-M 'I 2/a'
_symmetry_Int_Tables_number 15
loop_
_symmetry_equiv_pos_site_id
_symmetry_equiv_pos_as_xyz
1 x,y,z
2 1/2+x,1/2+y,1/2+z
3 1/2-x,y,-z
4 -x,1/2+y,1/2-z
5 -x,-y,-z
6 -1/2-x,-1/2-y,-1/2-z
7 -1/2+x,-y,z
8 x,-1/2-y,-1/2+z
_cell_length_a 14.144(2)
_cell_length_b 6.684(1)
_cell_length_c 22.277(2)
_cell_angle_alpha 90
_cell_angle_beta 91.653(9)
_cell_angle_gamma 90
_cell_formula_units_Z 8
loop_
_atom_type_symbol
_atom_type_radius_bond
C 0.68
H 0.23
Ag 1.59
Cl 0.99
S 1.02
loop_
_atom_site_label
_atom_site_type_symbol
_atom_site_fract_x
_atom_site_fract_y
_atom_site_fract_z
Ag1 Ag 0.01192(9) 0.16679(7) 0.37021(2)
Cl1 Cl 0.15462(9) 0.3507(2) 0.38892(6)
S1 S -0.10320(9) 0.0809(2) 0.45646(5)
S2 S -0.0099(1) -0.2062(2) 0.34000(6)
S3 S -0.1427(1) 0.2207(2) 0.30633(5)
C1 C -0.1213(5) -0.1854(9) 0.4458(3)
C2 C -0.0436(5) -0.2945(10) 0.4131(3)
C3 C -0.1208(5) -0.2018(9) 0.2972(2)
C4 C -0.1404(4) -0.0079(10) 0.2629(2)
C5 C -0.2350(4) 0.1631(9) 0.3586(2)
C6 C -0.2105(4) 0.1934(11) 0.4243(3)
H1 H -0.12630 -0.24740 0.48650
H2 H -0.18160 -0.20390 0.42250
H3 H 0.01490 -0.28800 0.43970
H4 H -0.06410 -0.43550 0.40820
H5 H -0.17320 -0.22320 0.32560
H6 H -0.11990 -0.31430 0.26760
H7 H -0.20310 -0.02280 0.24170
H8 H -0.08970 0.06420 0.23260
H9 H -0.29050 0.25010 0.34830
H10 H -0.25270 0.01960 0.35290
H11 H -0.26480 0.13930 0.44710
H12 H -0.20560 0.34100 0.43090
#END
