
###########################################################################
#
#                 Cambridge Crystallographic Data Centre
#                                CCDC 
# 
###########################################################################
#
#  This CIF contains data generated directly from an entry in the Cambridge 
#  Structural Database and will include bibliographic, chemical, crystal, 
#  experimental, refinement, and atomic coordinate data, as available.
#     
#  Copyright  2004  The Cambridge Crystallographic Data Centre
# 
#  This CIF is provided on the understanding that it is used for bona fide 
#  research purposes only.  It may contain copyright material of the CCDC
#  or of third parties, and may not be copied or further disseminated in 
#  any form, whether machine-readable or not, except for the purpose of 
#  generating routine backup copies on your local computer system.
# 
#  For further information about the CCDC, data deposition and data 
#  retrieval see <www.ccdc.cam.ac.uk>. Bona fide researchers may freely 
#  download  Mercury and enCIFer from this site to visualise CIF-encoded 
#  structures and to carry out CIF format checking respectively.
#
###########################################################################

data_CSD_CIF_KAZSEJ
_audit_creation_date 1990-06-28
_audit_creation_method CSD-ConQuest-V1
_database_code_CSD KAZSEJ
_chemical_formula_sum 'C72 H60 Ag2 Cl6 Os1 P4'
_chemical_formula_moiety
;
C72 H60 Ag2 Cl6 Os1 P4
;
_journal_coden_Cambridge 580
_journal_volume 6
_journal_year 1987
_journal_page_first 1695
_journal_name_full 'Polyhedron '
loop_
_publ_author_name
"P.D.Robinson"
"C.C.Hinckley"
"M.Matusz"
"P.A.Kibala"
_chemical_name_systematic
;
tetrakis(\m~2~-Chloro)-dichloro-tetrakis(triphenylphosphine)-di-silver-osmium
;
_cell_volume   1674.559
_exptl_crystal_colour 'dark red'
_exptl_crystal_density_diffrn 1.65
_diffrn_ambient_temperature ?
_diffrn_special_details
;
The study was carried out at room temperature,in the range 283-303K

;
#These two values have been output from a single CSD field.
_refine_ls_R_factor_gt 0.041
_refine_ls_wR_factor_gt 0.041
_symmetry_cell_setting triclinic
_symmetry_space_group_name_H-M 'P -1'
_symmetry_Int_Tables_number 2
loop_
_symmetry_equiv_pos_site_id
_symmetry_equiv_pos_as_xyz
1 x,y,z
2 -x,-y,-z
_cell_length_a 14.486(3)
_cell_length_b 14.711(3)
_cell_length_c 10.233(2)
_cell_angle_alpha 95.55(2)
_cell_angle_beta 98.75(2)
_cell_angle_gamma 126.88(1)
_cell_formula_units_Z 1
loop_
_atom_type_symbol
_atom_type_radius_bond
C 0.68
H 0.23
Ag 1.59
Cl 0.99
Os 1.37
P 1.05
loop_
_atom_site_label
_atom_site_type_symbol
_atom_site_fract_x
_atom_site_fract_y
_atom_site_fract_z
Os1 Os 1.00000 0.00000 1.00000
Ag1 Ag 0.97320(6) 0.21256(6) 0.84876(7)
Cl1 Cl 0.98574(24) 0.14559(22) 1.08065(24)
Cl2 Cl 1.20249(26) 0.12351(26) 1.10843(31)
Cl3 Cl 1.04126(27) 0.07160(25) 0.80530(25)
P1 P 0.76458(22) 0.10562(22) 0.72079(25)
P2 P 1.15365(22) 0.39538(22) 0.82400(25)
C1 C 1.29224(84) 0.47071(83) 0.95540(92)
C2 C 1.30026(87) 0.40872(86) 1.04502(97)
C3 C 1.4039(10) 0.4605(11) 1.1449(11)
C4 C 1.5019(10) 0.5753(11) 1.1588(12)
C5 C 1.49537(94) 0.63826(95) 1.0712(12)
C6 C 1.39088(94) 0.58598(92) 0.9711(11)
C7 C 1.18561(81) 0.36781(81) 0.66414(92)
C8 C 1.29238(93) 0.44825(95) 0.6330(11)
C9 C 1.3093(11) 0.4224(12) 0.5096(12)
C10 C 1.2207(14) 0.3191(13) 0.4160(12)
C11 C 1.1144(13) 0.2388(11) 0.4474(12)
C12 C 1.0971(10) 0.26358(96) 0.5699(11)
C13 C 1.13949(73) 0.50971(77) 0.80732(93)
C14 C 1.13191(92) 0.56316(88) 0.9215(10)
C15 C 1.1117(10) 0.64208(92) 0.9132(12)
C16 C 1.0975(10) 0.66979(94) 0.7917(14)
C17 C 1.10433(95) 0.62053(91) 0.6794(12)
C18 C 1.12521(82) 0.53759(81) 0.68458(94)
C19 C 0.72483(84) 0.20206(82) 0.70494(87)
C20 C 0.81015(85) 0.31517(90) 0.6915(11)
C21 C 0.7839(10) 0.38953(93) 0.6798(11)
C22 C 0.6710(11) 0.3532(10) 0.6845(11)
C23 C 0.58805(94) 0.2428(10) 0.6967(11)
C24 C 0.61306(90) 0.16820(93) 0.7074(10)
C25 C 0.74943(80) 0.04443(85) 0.54782(97)
C26 C 0.72613(92) 0.08329(91) 0.4362(10)
C27 C 0.72753(95) 0.04363(93) 0.3116(10)
C28 C 0.7527(10) -0.0322(10) 0.2914(11)
C29 C 0.7761(10) -0.0692(10) 0.4000(13)
C30 C 0.77505(96) -0.0314(10) 0.5288(11)
C31 C 0.63819(75) -0.01663(76) 0.77003(88)
C32 C 0.63789(92) -0.00688(97) 0.9045(10)
C33 C 0.5359(11) -0.0879(11) 0.9416(11)
C34 C 0.4344(10) -0.1788(10) 0.8435(15)
C35 C 0.43559(89) -0.19140(89) 0.7121(12)
C36 C 0.53847(97) -0.10848(96) 0.6712(11)
H1 H 1.23320 0.32970 1.03700
H2 H 1.40810 0.41680 1.20470
H3 H 1.57340 0.61090 1.22810
H4 H 1.56250 0.71730 1.07970
H5 H 1.38670 0.63010 0.91200
H6 H 1.35370 0.52100 0.69620
H7 H 1.38340 0.47690 0.48950
H8 H 1.23210 0.30290 0.33050
H9 H 1.05310 0.16610 0.38400
H10 H 1.02320 0.20830 0.59000
H11 H 1.14100 0.54410 1.00620
H12 H 1.10750 0.67800 0.99190
H13 H 1.08270 0.72430 0.78660
H14 H 1.09510 0.64120 0.59600
H15 H 1.12920 0.50220 0.60520
H16 H 0.88790 0.34100 0.69060
H17 H 0.84230 0.46570 0.66840
H18 H 0.65250 0.40500 0.67930
H19 H 0.51040 0.21710 0.69770
H20 H 0.55310 0.09170 0.71680
H21 H 0.70960 0.13660 0.44790
H22 H 0.71060 0.06910 0.23630
H23 H 0.75370 -0.05850 0.20360
H24 H 0.79350 -0.12170 0.38700
H25 H 0.79180 -0.05750 0.60340
H26 H 0.70820 0.05590 0.97210
H27 H 0.53560 -0.08110 1.03480
H28 H 0.36300 -0.23300 0.86870
H29 H 0.36630 -0.25700 0.64580
H30 H 0.53870 -0.11600 0.57800
Cl1A* Cl 1.01426(24) -0.14559(22) 0.91935(24)
Cl2A* Cl 0.79751(26) -0.12351(26) 0.89157(31)
Cl3A* Cl 0.95874(27) -0.07160(25) 1.19470(25)
Ag1A* Ag 1.02680(6) -0.21256(6) 1.15124(7)
P1A* P 1.23542(22) -0.10562(22) 1.27921(25)
P2A* P 0.84635(22) -0.39538(22) 1.17600(25)
C19A* C 1.27517(84) -0.20206(82) 1.29506(87)
C25A* C 1.25057(80) -0.04443(85) 1.45218(97)
C31A* C 1.36181(75) 0.01663(76) 1.22997(88)
C1A* C 0.70776(84) -0.47071(83) 1.04460(92)
C7A* C 0.81439(81) -0.36781(81) 1.33586(92)
C13A* C 0.86051(73) -0.50971(77) 1.19268(93)
C20A* C 1.18985(85) -0.31517(90) 1.3085(11)
C24A* C 1.38694(90) -0.16820(93) 1.2926(10)
C26A* C 1.27387(92) -0.08329(91) 1.5638(10)
C30A* C 1.22495(96) 0.0314(10) 1.4712(11)
C32A* C 1.36211(92) 0.00688(97) 1.0955(10)
C36A* C 1.46153(97) 0.10848(96) 1.3288(11)
C2A* C 0.69974(87) -0.40872(86) 0.95498(97)
C6A* C 0.60912(94) -0.58598(92) 1.0289(11)
C8A* C 0.70762(93) -0.44825(95) 1.3670(11)
C12A* C 0.9029(10) -0.26358(96) 1.4301(11)
C14A* C 0.86809(92) -0.56316(88) 1.0785(10)
C18A* C 0.87479(82) -0.53759(81) 1.31542(94)
C21A* C 1.2161(10) -0.38953(93) 1.3202(11)
H16A* H 1.11210 -0.34100 1.30940
C23A* C 1.41195(94) -0.2428(10) 1.3033(11)
H20A* H 1.44690 -0.09170 1.28320
C27A* C 1.27247(95) -0.04363(93) 1.6884(10)
H21A* H 1.29040 -0.13660 1.55210
C29A* C 1.2239(10) 0.0692(10) 1.6000(13)
H25A* H 1.20820 0.05750 1.39660
C33A* C 1.4641(11) 0.0879(11) 1.0584(11)
H26A* H 1.29180 -0.05590 1.02790
C35A* C 1.56441(89) 0.19140(89) 1.2879(12)
H30A* H 1.46130 0.11600 1.42200
C3A* C 0.5961(10) -0.4605(11) 0.8551(11)
H1A* H 0.76680 -0.32970 0.96300
C5A* C 0.50463(94) -0.63826(95) 0.9288(12)
H5A* H 0.61330 -0.63010 1.08800
C9A* C 0.6907(11) -0.4224(12) 1.4904(12)
H6A* H 0.64630 -0.52100 1.30380
C11A* C 0.8856(13) -0.2388(11) 1.5526(12)
H10A* H 0.97680 -0.20830 1.41000
C15A* C 0.8883(10) -0.64208(92) 1.0868(12)
H11A* H 0.85900 -0.54410 0.99380
C17A* C 0.89567(95) -0.62053(91) 1.3206(12)
H15A* H 0.87080 -0.50220 1.39480
C22A* C 1.3290(11) -0.3532(10) 1.3155(11)
H17A* H 1.15770 -0.46570 1.33160
H19A* H 1.48960 -0.21710 1.30230
C28A* C 1.2473(10) 0.0322(10) 1.7086(11)
H22A* H 1.28940 -0.06910 1.76370
H24A* H 1.20650 0.12170 1.61300
C34A* C 1.5656(10) 0.1788(10) 1.1565(15)
H27A* H 1.46440 0.08110 0.96520
H29A* H 1.63370 0.25700 1.35420
C4A* C 0.4981(10) -0.5753(11) 0.8412(12)
H2A* H 0.59190 -0.41680 0.79530
H4A* H 0.43750 -0.71730 0.92030
C10A* C 0.7793(14) -0.3191(13) 1.5840(12)
H7A* H 0.61660 -0.47690 1.51050
H9A* H 0.94690 -0.16610 1.61600
C16A* C 0.9025(10) -0.66979(94) 1.2083(14)
H12A* H 0.89250 -0.67800 1.00810
H14A* H 0.90490 -0.64120 1.40400
H18A* H 1.34750 -0.40500 1.32070
H23A* H 1.24630 0.05850 1.79640
H28A* H 1.63700 0.23300 1.13130
H3A* H 0.42660 -0.61090 0.77190
H8A* H 0.76790 -0.30290 1.66950
H13A* H 0.91730 -0.72430 1.21340
#END
